30	100	100	100
48	90	95
12	95	70
5	84	79
3	86	95
8	80	94
7	91	83
48	80	69
14	97	80
37	99	97
36	77	81
13	67	82
19	75	78
8	98	71
24	72	96
32	74	82
41	86	95
28	95	91
15	69	88
43	75	92
37	74	94
2	78	75
1	85	67
16	81	84
22	88	98
46	88	77
44	78	67
13	96	99
2	86	73
17	90	81
2	82	76
